# Solution for model GasLib-40
# Objective value = 1.1707103327768385e+01
loadshed[innode_1] 0
loadshed[innode_2] 0
loadshed[innode_3] 0
loadshed[innode_4] 0
loadshed[innode_5] 0
loadshed[innode_6] 0
loadshed[innode_7] 0
loadshed[innode_8] 0
loadshed[source_1] -2.2691134204983143e-01
loadshed[source_2] -5.5528244856321685e-02
loadshed[source_3] 3.5649286514888923e-01
loadshed[sink_1] 0
loadshed[sink_2] 0
loadshed[sink_3] 0
loadshed[sink_4] 0
loadshed[sink_5] 0
loadshed[sink_6] 0
loadshed[sink_7] 0
loadshed[sink_8] 0
loadshed[sink_9] 0
loadshed[sink_10] 0
loadshed[sink_11] 0
loadshed[sink_12] 7.1584835634762090e-01
loadshed[sink_13] 0
loadshed[sink_14] 0
loadshed[sink_15] 0
loadshed[sink_16] 0
loadshed[sink_17] 0
loadshed[sink_18] 0
loadshed[sink_19] 0
loadshed[sink_20] 0
loadshed[sink_21] 0
loadshed[sink_22] 0
loadshed[sink_23] 0
loadshed[sink_24] 0
loadshed[sink_25] 0
loadshed[sink_26] 0
loadshed[sink_27] 0
loadshed[sink_28] 0
loadshed[sink_29] 0
flow[source_1,sink_3] 1.9396275487336396e+02
flow[innode_1,sink_16] 1.6354166666666970e+01
flow[innode_6,sink_13] 1.2746944966086053e+01
flow[sink_13,sink_14] -3.6072217005806149e+00
flow[sink_14,sink_10] -1.9961388367247309e+01
flow[sink_25,sink_26] 1.7853527292899176e+02
flow[sink_26,sink_9] 1.3548039667223188e+02
flow[sink_9,sink_18] 1.1912623000556520e+02
flow[sink_26,sink_4] 2.6700709590093936e+01
flow[sink_4,sink_20] -3.8715957076574796e+01
flow[sink_18,sink_6] 1.0277206333889853e+02
flow[sink_25,innode_8] -1.6125442154002758e+02
flow[sink_6,sink_7] 5.3709563338898292e+01
flow[sink_6,sink_22] 3.2708333333333641e+01
flow[sink_7,sink_24] 3.7355396672231620e+01
flow[sink_22,sink_1] 1.6354166666666970e+01
flow[sink_24,sink_21] 2.1001230005564953e+01
flow[sink_21,sink_12] 4.6470633388982838e+00
flow[sink_7,sink_5] 0
flow[sink_5,sink_17] -1.6354166666667197e+01
flow[sink_17,sink_4] -4.9062500000002274e+01
flow[sink_17,sink_8] 1.6354166666668334e+01
flow[sink_3,sink_23] 16.3541666666697
flow[sink_8,sink_20] 0
flow[sink_25,sink_20] 5.5070123743241595e+01
flow[sink_25,sink_15] -1.0145208676495841e+02
flow[sink_15,sink_29] -65.3457077691013
flow[sink_29,sink_28] 1.6354166666667879e+01
flow[sink_29,sink_2] 6.8814712329190456e+01
flow[sink_2,sink_15] 5.2460545662523785e+01
flow[sink_29,innode_7] -1.6686875343162612e+02
flow[innode_4,sink_19] 101.732221700594
flow[sink_19,innode_3] 3.3683366173542439e+01
flow[innode_4,innode_5] 0
flow[sink_27,innode_5] 0
flow[sink_27,sink_19] -1.6354166666679703e+01
flow[sink_10,sink_11] 3.2708333333333641e+01
flow[sink_10,innode_2] -3.5340522193705191e+01
flow[sink_10,innode_3] -3.3683366173542439e+01
flow[innode_6,sink_25] -1.2746944966086053e+01
flow[sink_11,innode_1] 1.6354166666666970e+01
flow[sink_19,innode_2] 3.5340522193705191e+01
flow[source_3,innode_4] 101.732221700594
flow[source_2,innode_7] 1.6686875343162612e+02
flow[sink_3,innode_8] 1.6125442154002758e+02
pressure[innode_1] 7.4872224617052723e+01
pressure[innode_2] 7.6891818483730646e+01
pressure[innode_3] 7.6817230483566789e+01
pressure[innode_4] 81.01325
pressure[innode_5] 81.01325
pressure[innode_6] 7.4143596630474178e+01
pressure[innode_7] 81.01325
pressure[innode_8] 80.3649066069164
pressure[source_1] 81.01325
pressure[source_2] 81.01325
pressure[source_3] 81.01325
pressure[sink_1] 4.4304871046914243e+01
pressure[sink_2] 7.4807010227882827e+01
pressure[sink_3] 80.3649066069164
pressure[sink_4] 5.8174664884230737e+01
pressure[sink_5] 5.5081390707468856e+01
pressure[sink_6] 4.6405948657301614e+01
pressure[sink_7] 4.5668644376880906e+01
pressure[sink_8] 5.5682572717409982e+01
pressure[sink_9] 5.3460610799925078e+01
pressure[sink_10] 7.5023925924656268e+01
pressure[sink_11] 7.4872224617052723e+01
pressure[sink_12] 1.0132499999999989e+00
pressure[sink_13] 7.4073324853088536e+01
pressure[sink_14] 7.4079780283589088e+01
pressure[sink_15] 7.4635738108412724e+01
pressure[sink_16] 7.3850574782235043e+01
pressure[sink_17] 5.6299657912823605e+01
pressure[sink_18] 4.9150268741095310e+01
pressure[sink_19] 7.6891818483730646e+01
pressure[sink_20] 6.1015047514743692e+01
pressure[sink_21] 2.6669294707472351e+00
pressure[sink_22] 4.5368640189269257e+01
pressure[sink_23] 8.0200188595256620e+01
pressure[sink_24] 2.8994985805890892e+00
pressure[sink_25] 7.4143596630474178e+01
pressure[sink_26] 6.1569462206036640e+01
pressure[sink_27] 7.6540688486587143e+01
pressure[sink_28] 7.6254882279677346e+01
pressure[sink_29] 7.6550164553294522e+01
interdiction[source_1,sink_3] 0
interdiction[innode_1,sink_16] 0
interdiction[innode_6,sink_13] 0
interdiction[sink_13,sink_14] 0
interdiction[sink_14,sink_10] 0
interdiction[sink_25,sink_26] 0
interdiction[sink_26,sink_9] 0
interdiction[sink_9,sink_18] 0
interdiction[sink_26,sink_4] 0
interdiction[sink_4,sink_20] 0
interdiction[sink_18,sink_6] 0
interdiction[sink_25,innode_8] 0
interdiction[sink_6,sink_7] 0
interdiction[sink_6,sink_22] 0
interdiction[sink_7,sink_24] 0
interdiction[sink_22,sink_1] 0
interdiction[sink_24,sink_21] 0
interdiction[sink_21,sink_12] 0
interdiction[sink_7,sink_5] 1
interdiction[sink_5,sink_17] 0
interdiction[sink_17,sink_4] 0
interdiction[sink_17,sink_8] 0
interdiction[sink_3,sink_23] 0
interdiction[sink_8,sink_20] 1
interdiction[sink_25,sink_20] 0
interdiction[sink_25,sink_15] 0
interdiction[sink_15,sink_29] 0
interdiction[sink_29,sink_28] 0
interdiction[sink_29,sink_2] 0
interdiction[sink_2,sink_15] 0
interdiction[sink_29,innode_7] 0
interdiction[innode_4,sink_19] 0
interdiction[sink_19,innode_3] 0
interdiction[innode_4,innode_5] 0
interdiction[sink_27,innode_5] 1
interdiction[sink_27,sink_19] 0
interdiction[sink_10,sink_11] 0
interdiction[sink_10,innode_2] 0
interdiction[sink_10,innode_3] 0
interdiction[innode_6,sink_25] 0
interdiction[sink_11,innode_1] 0
interdiction[sink_19,innode_2] 0
interdiction[source_3,innode_4] 0
interdiction[source_2,innode_7] 0
interdiction[sink_3,innode_8] 0
WCcheckFlow[source_1,sink_3] 39
WCcheckFlow[innode_1,sink_16] 1
WCcheckFlow[innode_6,sink_13] 13
WCcheckFlow[sink_13,sink_14] 12
WCcheckFlow[sink_14,sink_10] 11
WCcheckFlow[sink_25,sink_26] 15
WCcheckFlow[sink_26,sink_9] 9
WCcheckFlow[sink_9,sink_18] 8
WCcheckFlow[sink_26,sink_4] 5
WCcheckFlow[sink_4,sink_20] 1
WCcheckFlow[sink_18,sink_6] 7
WCcheckFlow[sink_25,innode_8] -36
WCcheckFlow[sink_6,sink_7] 4
WCcheckFlow[sink_6,sink_22] 2
WCcheckFlow[sink_7,sink_24] 3
WCcheckFlow[sink_22,sink_1] 1
WCcheckFlow[sink_24,sink_21] 2
WCcheckFlow[sink_21,sink_12] 1
WCcheckFlow[sink_7,sink_5] 0
WCcheckFlow[sink_5,sink_17] -1
WCcheckFlow[sink_17,sink_4] -3
WCcheckFlow[sink_17,sink_8] 1
WCcheckFlow[sink_3,sink_23] 1
WCcheckFlow[sink_8,sink_20] 0
WCcheckFlow[sink_25,sink_20] 0
WCcheckFlow[sink_25,sink_15] 6
WCcheckFlow[sink_15,sink_29] 5
WCcheckFlow[sink_29,sink_28] 1
WCcheckFlow[sink_29,sink_2] 1
WCcheckFlow[sink_2,sink_15] 0
WCcheckFlow[sink_29,innode_7] 2
WCcheckFlow[innode_4,sink_19] -3
WCcheckFlow[sink_19,innode_3] -5
WCcheckFlow[innode_4,innode_5] 1
WCcheckFlow[sink_27,innode_5] 0
WCcheckFlow[sink_27,sink_19] -1
WCcheckFlow[sink_10,sink_11] 3
WCcheckFlow[sink_10,innode_2] 1
WCcheckFlow[sink_10,innode_3] 6
WCcheckFlow[innode_6,sink_25] -14
WCcheckFlow[sink_11,innode_1] 2
WCcheckFlow[sink_19,innode_2] 0
WCcheckFlow[source_3,innode_4] -1
WCcheckFlow[source_2,innode_7] -1
WCcheckFlow[sink_3,innode_8] 37
